Route 1: 0 22 78 82 54 4 36 0
Route 2: 0 16 23 10 6 95 56 14 63 81 0
Route 3: 0 92 53 83 65 11 77 32 17 19 39 34 0
Route 4: 0 68 2 67 58 18 26 51 64 24 30 5 50 0
Route 5: 0 61 76 21 40 98 86 0
Route 6: 0 90 48 20 8 79 59 35 0
Route 7: 0 96 38 13 52 37 29 66 55 100 31 0
Route 8: 0 69 28 97 60 42 25 3 70 84 0
Route 9: 0 9 62 47 94 7 46 85 99 91 88 93 0
Route 10: 0 45 43 71 74 75 44 87 12 72 0
Route 11: 0 80 1 15 27 57 41 73 49 0
Route 12: 0 89 33 0
